\ This file has been generated by DOcplex
\ ENCODING=ISO-8859-1
\Problem name: random_problem.lp

Minimize
 obj: 96 x0 + 78 x1 + 54 x2 + 54 x3 + 14 x4 + 15 x5 + 27 x6 + 52 x7 + 33 x8
      + 84 x9 + 61 x10 + 14 x11 + 55 x12 + 38 x13 + 61 x14 + 54 x15 + 34 x16
      + 97 x17 + 10 x18 + 19 x19 + 72 x20 + 51 x21 + 14 x22
Subject To
 c0: x2 + x4 + x9 + x10 + x15 + x18 + x22 = 1
 c1: x11 + x14 = 1
 c2: x1 + x12 + x16 + x17 + x19 + x20 + x21 = 1
 c3: x0 + x6 + x13 + x17 = 1
 c4: x7 + x21 = 1
 c5: x3 + x9 + x19 = 1
 c6: x5 + x7 + x8 + x19 + x21 = 1

Bounds
 0 <= x0 <= 1
 0 <= x1 <= 1
 0 <= x2 <= 1
 0 <= x3 <= 1
 0 <= x4 <= 1
 0 <= x5 <= 1
 0 <= x6 <= 1
 0 <= x7 <= 1
 0 <= x8 <= 1
 0 <= x9 <= 1
 0 <= x10 <= 1
 0 <= x11 <= 1
 0 <= x12 <= 1
 0 <= x13 <= 1
 0 <= x14 <= 1
 0 <= x15 <= 1
 0 <= x16 <= 1
 0 <= x17 <= 1
 0 <= x18 <= 1
 0 <= x19 <= 1
 0 <= x20 <= 1
 0 <= x21 <= 1
 0 <= x22 <= 1

Binaries
 x0 x1 x2 x3 x4 x5 x6 x7 x8 x9 x10 x11 x12 x13 x14 x15 x16 x17 x18 x19 x20 x21
 x22
End
